p wcnf 127 64 65 
1 125 4 0 
1 120 67 0 
1 10 87 0 
1 19 54 0 
1 112 25 0 
1 6 100 0 
1 -52 19 0 
1 26 -77 0 
1 7 36 0 
1 12 -73 0 
1 -10 97 0 
1 5 -84 0 
1 -106 66 0 
1 -108 6 0 
1 75 32 0 
1 97 78 0 
1 -83 61 0 
1 39 119 0 
1 98 -126 0 
1 -127 -79 0 
1 -25 105 0 
1 78 -69 0 
1 93 -59 0 
1 59 -26 0 
1 44 78 0 
1 124 20 0 
1 -28 -91 0 
1 -84 -55 0 
1 60 -42 0 
1 64 45 0 
1 -52 121 0 
1 24 -112 0 
1 102 -14 0 
1 10 -114 0 
1 82 25 0 
1 -10 -96 0 
1 -111 90 0 
1 -90 -24 0 
1 111 -112 0 
1 38 -17 0 
1 76 16 0 
1 113 -69 0 
1 -61 -16 0 
1 119 -16 0 
1 -7 -17 0 
1 96 -95 0 
1 -106 65 0 
1 58 68 0 
1 34 -15 0 
1 -105 43 0 
1 97 -68 0 
1 -54 -112 0 
1 -96 92 0 
1 89 -114 0 
1 -5 -35 0 
1 -54 -79 0 
1 2 94 0 
1 6 38 0 
1 13 25 0 
1 21 -67 0 
1 127 88 0 
1 34 -106 0 
1 -107 -63 0 
1 88 95 0 
